400
[82,84,85,89,93,94,104,109,111,112,118,119,123,125,130,140,142,144,145,152,156,159,170,177,181,190,196,201,203,205,206,208,220,222,224,234,236,239,241,243,245,251,253,261,266,271,274,275]
[1,1,1,1,1,1,1,1,1,1,1,1,1,1,1,1,1,1,1,1,1,1,1,1,1,1,3,1,1,1,1,1,1,1,1,1,1,1,1,1,1,1,1,1,1,1,1,1]
